50
12   79
12   65
7   54
27   135
47   67
28   109
33   64
33   103
39   92
41   49
14   196
27   63
31   185
3   172
29   47
35   185
18   159
4   73
8   118
32   53
9   184
22   104
5   40
21   136
49   54
31   94
3   94
34   73
49   70
20   72
13   59
14   143
36   183
5   128
33   84
11   75
12   41
20   126
26   143
3   106
48   92
11   31
28   188
50   192
6   30
23   184
25   51
21   109
37   126
29   102
2000
